154629
[0, 10, 161, 133, 12, 13, 14, 15, 16, 17, 171, 185, 181, 170, 169, 168, 167, 135, 166, 165, 134, 164, 162, 160, 163, 183, 172, 173, 174, 175, 180, 177, 178, 176, 339, 184, 332, 337, 338, 340, 341, 342, 343, 182, 336, 335, 334, 326, 325, 324, 538, 537, 536, 535, 533, 525, 524, 523, 515, 516, 517, 518, 759, 519, 522, 520, 521, 766, 765, 764, 763, 762, 761, 758, 760, 767, 772, 773, 774, 951, 955, 954, 771, 770, 769, 950, 953, 960, 961, 962, 963, 956, 957, 958, 959, 952, 776, 775, 768, 777, 778, 779, 780, 781, 782, 783, 784, 787, 793, 794, 795, 786, 785, 569, 553, 552, 573, 574, 575, 576, 577, 578, 579, 580, 581, 582, 585, 584, 583, 806, 807, 808, 809, 805, 804, 803, 810, 811, 802, 801, 800, 799, 798, 797, 822, 818, 817, 821, 816, 815, 814, 813, 812, 850, 827, 826, 825, 824, 993, 842, 843, 844, 845, 846, 847, 848, 849, 1010, 1011, 1009, 1013, 1014, 1015, 1016, 1017, 1018, 1019, 1020, 1021, 1012, 851, 836, 835, 834, 833, 832, 831, 830, 829, 828, 606, 605, 604, 624, 626, 627, 603, 591, 592, 593, 594, 586, 587, 588, 589, 590, 597, 595, 596, 598, 599, 600, 601, 602, 373, 374, 375, 376, 382, 390, 372, 371, 369, 370, 572, 571, 570, 558, 561, 560, 559, 364, 365, 355, 354, 353, 562, 563, 565, 564, 566, 567, 568, 556, 557, 554, 555, 551, 550, 549, 548, 547, 546, 540, 539, 541, 542, 543, 544, 545, 527, 528, 530, 529, 526, 531, 532, 534, 327, 333, 328, 329, 330, 331, 344, 346, 179, 196, 186, 187, 188, 197, 199, 200, 363, 348, 362, 347, 345, 349, 350, 351, 352, 361, 360, 359, 358, 357, 356, 367, 366, 368, 213, 212, 227, 389, 388, 387, 381, 377, 378, 379, 380, 391, 397, 396, 395, 399, 431, 235, 383, 384, 385, 386, 231, 230, 229, 228, 214, 215, 216, 222, 217, 218, 223, 226, 232, 233, 234, 225, 224, 221, 220, 219, 59, 60, 61, 62, 63, 64, 65, 137, 239, 236, 237, 238, 398, 430, 429, 428, 427, 426, 425, 424, 423, 263, 264, 421, 422, 440, 282, 281, 280, 279, 278, 277, 276, 275, 283, 292, 293, 294, 295, 296, 462, 463, 464, 465, 466, 467, 457, 458, 452, 451, 450, 449, 674, 673, 672, 671, 670, 669, 668, 667, 665, 666, 651, 648, 649, 647, 650, 652, 653, 643, 664, 663, 662, 434, 435, 436, 437, 438, 441, 442, 443, 444, 445, 446, 447, 448, 439, 432, 433, 661, 660, 628, 629, 409, 408, 410, 411, 412, 413, 414, 415, 416, 417, 418, 419, 420, 394, 392, 393, 400, 401, 402, 403, 404, 405, 406, 407, 625, 616, 615, 614, 613, 617, 618, 619, 620, 621, 622, 623, 607, 608, 609, 610, 611, 612, 838, 839, 837, 841, 840, 632, 631, 630, 659, 656, 658, 657, 655, 633, 634, 635, 636, 637, 638, 639, 640, 646, 644, 645, 642, 641, 856, 855, 854, 860, 861, 862, 863, 864, 865, 866, 867, 875, 874, 873, 872, 871, 870, 1024, 1025, 1026, 1027, 876, 1028, 877, 878, 1041, 879, 880, 881, 882, 883, 884, 885, 886, 896, 895, 894, 893, 892, 891, 1043, 1042, 1029, 1040, 1039, 1038, 1037, 1036, 1035, 1034, 1033, 1032, 1031, 869, 868, 858, 859, 853, 852, 857, 1023, 1030, 1022, 1083, 1099, 1098, 1766, 1765, 1764, 1716, 1718, 1715, 1714, 1717, 1682, 1673, 1674, 1675, 1683, 1720, 1684, 1676, 1677, 1685, 1686, 1723, 1725, 1721, 1719, 1726, 1722, 1767, 1796, 1768, 1769, 1727, 1771, 1770, 1797, 1256, 1272, 1270, 1269, 1257, 1816, 1817, 1818, 1819, 1828, 1917, 1925, 1924, 1937, 1938, 2021, 2020, 2019, 2018, 1935, 1934, 1933, 1932, 1919, 1920, 1921, 1922, 1936, 1923, 1916, 1833, 1827, 1815, 1814, 1826, 1813, 1812, 1798, 1772, 1773, 1774, 1775, 1776, 1799, 1800, 1779, 1741, 1740, 1778, 1777, 1738, 1737, 1734, 1733, 1731, 1730, 1728, 1729, 1732, 1736, 1735, 1692, 1691, 1690, 1689, 1688, 1724, 1687, 1678, 1238, 1237, 1236, 1235, 1234, 1233, 1440, 1441, 1442, 1430, 1439, 1438, 1437, 1436, 1435, 1433, 1432, 1429, 1428, 1420, 1421, 1422, 1423, 1424, 1425, 1427, 1426, 1540, 1539, 1538, 1537, 1536, 1535, 1534, 1533, 1419, 1418, 1417, 1431, 1434, 1227, 1228, 1229, 1230, 1231, 1232, 1239, 1246, 1240, 1247, 1248, 1249, 1250, 1008, 1007, 1006, 992, 823, 991, 990, 989, 988, 994, 1003, 1005, 1004, 1002, 1001, 1000, 999, 998, 987, 986, 985, 984, 983, 982, 819, 796, 820, 979, 978, 973, 792, 791, 788, 790, 789, 968, 967, 964, 965, 966, 969, 970, 971, 972, 974, 976, 975, 977, 980, 981, 995, 996, 997, 1255, 1254, 1253, 1252, 1251, 1245, 1244, 1243, 1242, 1241, 1215, 1214, 1213, 1212, 1216, 1217, 1218, 1208, 1207, 1206, 1205, 1201, 1202, 1209, 1210, 1211, 1415, 1412, 1411, 1410, 1409, 1408, 1407, 1406, 1405, 1404, 1200, 1203, 1204, 1226, 1225, 1224, 1223, 1222, 1221, 1220, 1219, 1082, 1081, 1080, 1079, 1078, 1077, 1076, 1075, 1071, 1074, 1073, 1072, 1070, 1069, 1068, 1067, 1065, 1066, 1198, 1199, 1197, 1196, 1187, 1186, 1185, 1188, 1189, 1192, 1193, 1194, 1195, 1064, 1063, 1062, 1057, 1055, 1054, 1053, 1050, 1052, 1051, 1056, 1061, 1060, 1059, 1058, 1049, 1048, 1047, 1191, 1190, 1180, 1181, 1182, 1183, 1184, 1387, 1386, 1385, 1384, 1377, 1376, 1366, 1365, 1367, 1368, 1369, 1370, 1371, 1372, 1378, 1379, 1380, 1381, 1388, 1382, 1373, 1374, 1375, 1383, 1389, 1390, 1403, 1402, 1401, 1400, 1395, 1396, 1397, 1398, 1413, 1414, 1416, 1399, 1493, 1494, 1495, 1496, 1497, 1498, 1503, 1526, 1499, 1500, 1502, 1501, 1529, 1530, 1531, 1532, 1528, 1527, 1525, 1524, 1523, 1522, 1521, 1520, 1519, 1518, 1517, 1516, 1515, 1514, 1513, 1699, 1698, 1697, 1696, 1695, 1694, 1693, 1739, 1742, 1743, 1744, 1745, 1746, 1747, 1749, 1748, 1786, 1785, 1784, 1783, 1782, 1781, 1780, 1801, 1802, 1803, 1804, 1805, 1806, 2016, 2017, 2032, 2046, 2047, 2033, 2034, 2048, 2049, 2035, 2036, 2050, 2130, 2129, 2131, 2132, 2155, 2156, 2157, 2158, 2159, 2160, 2161, 2162, 2163, 2176, 2175, 2174, 2173, 2172, 2171, 2170, 2169, 2168, 2167, 2154, 2153, 2152, 2151, 2166, 2165, 2164, 1811, 1795, 1794, 1793, 1792, 1810, 1791, 1809, 2125, 2149, 2150, 2128, 2127, 2126, 1807, 1787, 1788, 1789, 1808, 1790, 1754, 1756, 1755, 1757, 1758, 1762, 1761, 1760, 1759, 1750, 1751, 1752, 1753, 1709, 1708, 1707, 1681, 1706, 1705, 2436, 1704, 1703, 1702, 1701, 1700, 1679, 1680, 1512, 1511, 1510, 1509, 1508, 1507, 1506, 1505, 1504, 1648, 1647, 1646, 1645, 1644, 1643, 1642, 1641, 1640, 1639, 1638, 1637, 1636, 1635, 1634, 1632, 1649, 1626, 1627, 1628, 1629, 1630, 1631, 1661, 1650, 1633, 1651, 1652, 1653, 1654, 1655, 1656, 1657, 1658, 1659, 1660, 1662, 1663, 1664, 1665, 1666, 1667, 1668, 1669, 1670, 1671, 2423, 2422, 2421, 2432, 2433, 2434, 2435, 2424, 1672, 1710, 1711, 1712, 1713, 2437, 2438, 2439, 2440, 2461, 2462, 2441, 2442, 2463, 2464, 2443, 1763, 2444, 2465, 2473, 2474, 2493, 2492, 2491, 2512, 2511, 2490, 2489, 2510, 2509, 2488, 2508, 2487, 2486, 2485, 2507, 2506, 2520, 2521, 2537, 2536, 2558, 2557, 2535, 2534, 2533, 2532, 2531, 2530, 2529, 2528, 2527, 2548, 2547, 2546, 2526, 2524, 2525, 2523, 2407, 2404, 2495, 2496, 2497, 2516, 2498, 2499, 2500, 2501, 2502, 2517, 2503, 2482, 2483, 2504, 2518, 2519, 2505, 2484, 2472, 2460, 2459, 2458, 2457, 2456, 2455, 2454, 2453, 2452, 2362, 2451, 2481, 2480, 2479, 2478, 2477, 2471, 2470, 2450, 2429, 2430, 2431, 2420, 2419, 2418, 2428, 2449, 2469, 2476, 2475, 2468, 2446, 2447, 2448, 2427, 2417, 2416, 2426, 2425, 2415, 2396, 2398, 2400, 2401, 2399, 2397, 2361, 2360, 2359, 2358, 2357, 2354, 2356, 2355, 2333, 2329, 1612, 1613, 1577, 1578, 1580, 1579, 1581, 1582, 1547, 1548, 1549, 1550, 1561, 1563, 1587, 1589, 1590, 1588, 1625, 1614, 1615, 1616, 1617, 1618, 1619, 1620, 1621, 1622, 1623, 1624, 1593, 1592, 1591, 1594, 1595, 1596, 1597, 1598, 1599, 1600, 1601, 1603, 1602, 1604, 1605, 1606, 1607, 1564, 1463, 1464, 1608, 1467, 1481, 1468, 1469, 1470, 1471, 1472, 1473, 1474, 1475, 1476, 1477, 1490, 1489, 1478, 1479, 1488, 1487, 1486, 1482, 1480, 1485, 1484, 1483, 1491, 1492, 1394, 1393, 1392, 1391, 1466, 1465, 1460, 1462, 1461, 1459, 1458, 1457, 1456, 1455, 1454, 1363, 1364, 1453, 1451, 1452, 1443, 1444, 1445, 1446, 1447, 1448, 1450, 1449, 1560, 1559, 1558, 1557, 1556, 1562, 1555, 1554, 1553, 1552, 1551, 1546, 1545, 1544, 1542, 1543, 1541, 1586, 1583, 1585, 1584, 1575, 1568, 1567, 1576, 1566, 1565, 2269, 2262, 2261, 2259, 2278, 2286, 2279, 2287, 2288, 2280, 2281, 2263, 2268, 2270, 2271, 2272, 2264, 2265, 2260, 2284, 2291, 2283, 2282, 2289, 2290, 2295, 2303, 2302, 2309, 2310, 2301, 2311, 2300, 2299, 2296, 2297, 2298, 2312, 2313, 2314, 2315, 2414, 2318, 2316, 2317, 2319, 2324, 2320, 2321, 2322, 2323, 2325, 2326, 2327, 2306, 2307, 2308, 2304, 2305, 2294, 2293, 2292, 2285, 2277, 2267, 2266, 2273, 2274, 2275, 1609, 1569, 1570, 1571, 1572, 1574, 1573, 2276, 1610, 1611, 2328, 2330, 2331, 2335, 2332, 2334, 2337, 2340, 2339, 2338, 2341, 2342, 2343, 2345, 2344, 2346, 2347, 2348, 2350, 2349, 2351, 2353, 2352, 2389, 2388, 2390, 2391, 2392, 2393, 2394, 2395, 2413, 2412, 2410, 2387, 2386, 2385, 2384, 2383, 2382, 2381, 2380, 2379, 2378, 2377, 2376, 2375, 2374, 2372, 2371, 2370, 2336, 2369, 2368, 2367, 2366, 2365, 2364, 2363, 2373, 2402, 2403, 2405, 2406, 2408, 2409, 2411, 2584, 2565, 2566, 2567, 2586, 2585, 2604, 2605, 2606, 2607, 2587, 2568, 2549, 2550, 2569, 2572, 2570, 2590, 2589, 2588, 2608, 2609, 2610, 2611, 2591, 2625, 2571, 2551, 2552, 2553, 2554, 2555, 2573, 2592, 2612, 2593, 2574, 2594, 2613, 2614, 2615, 2616, 2617, 2618, 2619, 2620, 2600, 2601, 2626, 2581, 2599, 2598, 2597, 2596, 2595, 2576, 2575, 2556, 2577, 2578, 2559, 2560, 2579, 2582, 2580, 2561, 2538, 2539, 2562, 2540, 2541, 2542, 2564, 2563, 2583, 2621, 2622, 2602, 2603, 2623, 2624, 2958, 3033, 2916, 2894, 2871, 2849, 2870, 2869, 2545, 2544, 2543, 2522, 2513, 2514, 2515, 2494, 2667, 2467, 2466, 2445, 2627, 2628, 2629, 2631, 2630, 2632, 2633, 2634, 2669, 2668, 2691, 2692, 2845, 2693, 2694, 2695, 2682, 2681, 2670, 2671, 2672, 2635, 2673, 2683, 2696, 2697, 2852, 2853, 2854, 2855, 2878, 2856, 2700, 2699, 2687, 2688, 2701, 2702, 2689, 2690, 2703, 2847, 2857, 2858, 2848, 2881, 2904, 2903, 2880, 2879, 2901, 2902, 2924, 2925, 2926, 2927, 2948, 2947, 2946, 2945, 2944, 2943, 2923, 2922, 2979, 2877, 2876, 2899, 2898, 2920, 2921, 2942, 2941, 2919, 2940, 2939, 2918, 2896, 2897, 2875, 2874, 2873, 2851, 2846, 2850, 2872, 2895, 2900, 2917, 2938, 2959, 2960, 2961, 2962, 2963, 2964, 2965, 2966, 2967, 2968, 2969, 2970, 2971, 2972, 2949, 2928, 2905, 2882, 2906, 2883, 2884, 2907, 2929, 2950, 2951, 2952, 2953, 2973, 2974, 2975, 2976, 2955, 2934, 2913, 2912, 2889, 2890, 2891, 2865, 2864, 2863, 2862, 2861, 2886, 2887, 2888, 2911, 2933, 2954, 2932, 2910, 2909, 2931, 2930, 2908, 2885, 2860, 2859, 2715, 2714, 2708, 2707, 2706, 2705, 2711, 2713, 2712, 2704, 2680, 2679, 2678, 2677, 2676, 2675, 2686, 2698, 2685, 2684, 2674, 2636, 2637, 2638, 2639, 2640, 2641, 2642, 2643, 2644, 2645, 2646, 2647, 2648, 2649, 2650, 2651, 2652, 2653, 2654, 2655, 2656, 2657, 2658, 2207, 2197, 2196, 2195, 2205, 2206, 2659, 2660, 2661, 2662, 2663, 2664, 2665, 2177, 2201, 2202, 2191, 2192, 2193, 2203, 2204, 2194, 2188, 2189, 2178, 2179, 2136, 2180, 2137, 2075, 2076, 2077, 2078, 2062, 2135, 2134, 2133, 2059, 2058, 2057, 2056, 2055, 2054, 2053, 2052, 2051, 2037, 2038, 2039, 2022, 2040, 2041, 2042, 2043, 2044, 2045, 2023, 2060, 2024, 2063, 2061, 2025, 2026, 2064, 2065, 2066, 2067, 2068, 2069, 2070, 2027, 2029, 2081, 2080, 2139, 2079, 2071, 2072, 2073, 2074, 2181, 2187, 2186, 2182, 2183, 2184, 2138, 2185, 2190, 2198, 2208, 2209, 2199, 2200, 2210, 2213, 2212, 2211, 2231, 2232, 2233, 2234, 2235, 2236, 2254, 2253, 2252, 2734, 2735, 2736, 2737, 2738, 2739, 2740, 2255, 2237, 2238, 2239, 2256, 2240, 2221, 2241, 2242, 2243, 2222, 2244, 2756, 2755, 2257, 2743, 2742, 2741, 2752, 2751, 2750, 2744, 2749, 2748, 2747, 2746, 2745, 2780, 2666, 2710, 2709, 2720, 2718, 2716, 2717, 2719, 2721, 2723, 2722, 2725, 2724, 2726, 2727, 2729, 2728, 2730, 2732, 2733, 2731, 2866, 2867, 2868, 2893, 2892, 2915, 2914, 2937, 2936, 2935, 2957, 2956, 2977, 2978, 3034, 3035, 3018, 3014, 3013, 2982, 2980, 2983, 2981, 2984, 3015, 3016, 3019, 3017, 2989, 2988, 2829, 2825, 2824, 2823, 2822, 2827, 2828, 2987, 2986, 2985, 2826, 2821, 2820, 2819, 2781, 2793, 2794, 2795, 2796, 2797, 2782, 2798, 2799, 2800, 2801, 2783, 2753, 2754, 2784, 2802, 2814, 2830, 2832, 2833, 2831, 2816, 2805, 2786, 2804, 2815, 2803, 2785, 2769, 2770, 2771, 2772, 2773, 2757, 2758, 2759, 2760, 2765, 2775, 2774, 2789, 2788, 2787, 2806, 2817, 2834, 2835, 2836, 2995, 2994, 2993, 2992, 3001, 2991, 2990, 3020, 3021, 3022, 3023, 3025, 3024, 3002, 3003, 3004, 3005, 3006, 3007, 3026, 3027, 3029, 3028, 3008, 2996, 2997, 2998, 3009, 3010, 3031, 3032, 3036, 3037, 3030, 3011, 2999, 3000, 3012, 2844, 2842, 2841, 2843, 2840, 2839, 2818, 2838, 2837, 2807, 2808, 2809, 2810, 2811, 2812, 2813, 2790, 2776, 2777, 2778, 2791, 2792, 2779, 2768, 2767, 2766, 2763, 2764, 2258, 2251, 2250, 2762, 2761, 2248, 2249, 2230, 2229, 2228, 2227, 2247, 2246, 2245, 2226, 2148, 2225, 2224, 2223, 2146, 2147, 2145, 2144, 2143, 2142, 2220, 2219, 2218, 2217, 2216, 2215, 2214, 2090, 2091, 2092, 2093, 2094, 2140, 2141, 2095, 2096, 2089, 2088, 2087, 2086, 2085, 2084, 2083, 2082, 2028, 1983, 1984, 1985, 1986, 1987, 1988, 1980, 1982, 1981, 1978, 1968, 1967, 1966, 1965, 1964, 1963, 1962, 1961, 1960, 1958, 1953, 1952, 1951, 1950, 1949, 1954, 1955, 1956, 1959, 1957, 1969, 1970, 1979, 1971, 1972, 1973, 1974, 1975, 1976, 1977, 1875, 1876, 1878, 1877, 1879, 1884, 1885, 1883, 1882, 1881, 1880, 1886, 1887, 1871, 1872, 1873, 1874, 1906, 1907, 1908, 1909, 1910, 1990, 1989, 1994, 1993, 2003, 2030, 2031, 2097, 2098, 2114, 2115, 2116, 2117, 2118, 2119, 2120, 2123, 2121, 2124, 2122, 2113, 2108, 2107, 2112, 2111, 2106, 2105, 2110, 2104, 2109, 2103, 2102, 2101, 2100, 2099, 2006, 2007, 2008, 2009, 2010, 1995, 1996, 1997, 1991, 1998, 2011, 2012, 2013, 2004, 1999, 1992, 2000, 2001, 2014, 2015, 2005, 2002, 1915, 1914, 1913, 1912, 1911, 1904, 1899, 1900, 1901, 1903, 1902, 1891, 1892, 1345, 1344, 1343, 1342, 1890, 1898, 1897, 1896, 1895, 1905, 1894, 1893, 1888, 1889, 1335, 1336, 1337, 1338, 1339, 1340, 1341, 1347, 1346, 1350, 1349, 1348, 1361, 1360, 1351, 1352, 1353, 1354, 1355, 1356, 1357, 1358, 1359, 1179, 1178, 1177, 1176, 1175, 1169, 1168, 1167, 1166, 1165, 1164, 1163, 1174, 1173, 1172, 1171, 1170, 1362, 1333, 1334, 1332, 1331, 1330, 1329, 1328, 1327, 1326, 1325, 1324, 1323, 1322, 1320, 1321, 1319, 1312, 1313, 1314, 1315, 1316, 1317, 1318, 1870, 1869, 1868, 1867, 1866, 1865, 1310, 1311, 1309, 1308, 1307, 1306, 1305, 1304, 1303, 1302, 1301, 1300, 1299, 1298, 1297, 1295, 1296, 1294, 1293, 1292, 1290, 1291, 1289, 1288, 1287, 1282, 1281, 1283, 1284, 1285, 1280, 1825, 1824, 1823, 1829, 1832, 1837, 1836, 1838, 1842, 1843, 1844, 1845, 1846, 1847, 1848, 1849, 1850, 1851, 1862, 1864, 1863, 1860, 1861, 1852, 1853, 1854, 1855, 1856, 1857, 1858, 1859, 1841, 1840, 1839, 1835, 1931, 1947, 1948, 1945, 1944, 1946, 1943, 1930, 1942, 1929, 1928, 1927, 1941, 1940, 1939, 1926, 1918, 1834, 1831, 1830, 1820, 1821, 1822, 1266, 1265, 1264, 1263, 1262, 1261, 1260, 1259, 1258, 1267, 1268, 1271, 1273, 1274, 1275, 1276, 1277, 1278, 1279, 1286, 1117, 1116, 1101, 1113, 1112, 1111, 1110, 1109, 1108, 1107, 1106, 1105, 1104, 1103, 1102, 1100, 1084, 1085, 1086, 1087, 1088, 1089, 1090, 1091, 1092, 1093, 1095, 1094, 1096, 1097, 1114, 1115, 1131, 1132, 1133, 1134, 1135, 1127, 1126, 1118, 1119, 1120, 1121, 1122, 1128, 1136, 1137, 1129, 1138, 1130, 1147, 1149, 1150, 1139, 1140, 1151, 1152, 1153, 1154, 1148, 1141, 1142, 1143, 1155, 1156, 1157, 1158, 1159, 1160, 1146, 1145, 1046, 1045, 1144, 916, 917, 918, 919, 920, 921, 900, 1044, 1125, 1124, 1123, 897, 898, 890, 889, 888, 887, 681, 682, 683, 684, 685, 686, 687, 688, 689, 690, 691, 692, 693, 694, 695, 696, 697, 698, 680, 678, 679, 675, 676, 654, 677, 699, 700, 701, 708, 709, 712, 710, 711, 713, 714, 715, 453, 454, 455, 456, 459, 461, 297, 298, 460, 488, 485, 484, 487, 486, 483, 482, 481, 480, 479, 477, 478, 312, 510, 509, 508, 507, 506, 505, 504, 503, 502, 501, 500, 512, 511, 499, 498, 497, 746, 744, 743, 742, 741, 734, 735, 738, 739, 740, 745, 496, 495, 494, 493, 492, 491, 490, 489, 474, 473, 472, 471, 470, 475, 476, 468, 469, 707, 706, 705, 704, 703, 702, 736, 737, 733, 732, 731, 730, 729, 728, 727, 726, 724, 723, 722, 721, 720, 719, 718, 716, 717, 922, 899, 901, 902, 903, 904, 905, 906, 907, 910, 908, 915, 914, 913, 912, 909, 911, 725, 747, 748, 749, 750, 751, 752, 753, 754, 932, 931, 928, 929, 936, 927, 926, 925, 924, 923, 934, 939, 938, 1161, 1162, 940, 935, 941, 942, 943, 944, 949, 945, 948, 946, 947, 937, 930, 933, 756, 755, 757, 514, 513, 159, 158, 157, 156, 131, 132, 155, 130, 129, 128, 127, 126, 125, 124, 123, 122, 121, 120, 146, 150, 151, 152, 153, 154, 323, 322, 311, 310, 309, 321, 320, 319, 308, 318, 317, 316, 315, 314, 313, 306, 307, 149, 148, 147, 145, 144, 118, 119, 117, 116, 115, 304, 305, 303, 302, 300, 114, 301, 299, 112, 113, 291, 290, 289, 288, 110, 109, 108, 287, 286, 285, 284, 141, 142, 143, 97, 107, 96, 106, 105, 95, 94, 104, 103, 93, 92, 91, 90, 89, 88, 98, 99, 100, 111, 101, 102, 140, 274, 273, 272, 271, 270, 269, 268, 267, 266, 265, 250, 249, 86, 87, 77, 76, 75, 85, 84, 74, 73, 83, 139, 245, 253, 246, 247, 248, 254, 262, 261, 260, 259, 258, 257, 256, 255, 252, 240, 251, 241, 242, 243, 244, 138, 80, 81, 82, 72, 71, 70, 69, 79, 78, 68, 56, 66, 55, 54, 53, 52, 51, 50, 49, 48, 47, 46, 58, 57, 45, 41, 40, 43, 44, 42, 211, 209, 208, 207, 206, 205, 204, 203, 202, 201, 191, 190, 189, 136, 33, 34, 67, 192, 193, 194, 198, 210, 195, 35, 36, 37, 38, 39, 29, 28, 27, 26, 25, 24, 23, 22, 32, 31, 30, 21, 20, 19, 18, 9, 8, 7, 6, 5, 4, 3, 2, 1, 11]
